verification/out/smoke_runs/smoke_formal/model/design_smt2.smt2
; SMT-LIBv2 description generated by Yosys 0.63+188 (git sha1 cede13a74-dirty, x86_64-w64-mingw32-g++ 13.2.1 -O3)
; yosys-smt2-module smoke_formal
(declare-sort |smoke_formal_s| 0)
(declare-fun |smoke_formal_is| (|smoke_formal_s|) Bool)
(declare-fun |smoke_formal#0| (|smoke_formal_s|) Bool) ; \a
; yosys-smt2-input a 1
; yosys-smt2-wire a 1
; yosys-smt2-witness {"offset": 0, "path": ["\\a"], "smtname": "a", "smtoffset": 0, "type": "input", "width": 1}
(define-fun |smoke_formal_n a| ((state |smoke_formal_s|)) Bool (|smoke_formal#0| state))
(declare-fun |smoke_formal#1| (|smoke_formal_s|) Bool) ; \b
; yosys-smt2-input b 1
; yosys-smt2-wire b 1
; yosys-smt2-witness {"offset": 0, "path": ["\\b"], "smtname": "b", "smtoffset": 0, "type": "input", "width": 1}
(define-fun |smoke_formal_n b| ((state |smoke_formal_s|)) Bool (|smoke_formal#1| state))
(define-fun |smoke_formal#2| ((state |smoke_formal_s|)) (_ BitVec 1) (bvand (ite (|smoke_formal#0| state) #b1 #b0) (ite (|smoke_formal#1| state) #b1 #b0))) ; \y
; yosys-smt2-output y 1
; yosys-smt2-wire y 1
(define-fun |smoke_formal_n y| ((state |smoke_formal_s|)) Bool (= ((_ extract 0 0) (|smoke_formal#2| state)) #b1))
; yosys-smt2-assert 0 _witness_.check_assert_smoke_formal_v_9_3 smoke_formal.v:9.9-9.30
(define-fun |smoke_formal_a 0| ((state |smoke_formal_s|)) Bool (or true (not true))) ; _witness_.check_assert_smoke_formal_v_9_3
(define-fun |smoke_formal_a| ((state |smoke_formal_s|)) Bool 
  (|smoke_formal_a 0| state)
)
(define-fun |smoke_formal_u| ((state |smoke_formal_s|)) Bool true)
(define-fun |smoke_formal_i| ((state |smoke_formal_s|)) Bool true)
(define-fun |smoke_formal_h| ((state |smoke_formal_s|)) Bool true)
(define-fun |smoke_formal_t| ((state |smoke_formal_s|) (next_state |smoke_formal_s|)) Bool true) ; end of module smoke_formal
; yosys-smt2-topmod smoke_formal
; end of yosys output
